50
    1   485   485
    2    94    94
    3   326   326
    4   506   506
    5   248   248
    6   416   416
    7   421   421
    8   992   992
    9   322   322
   10   649   649
   11   795   795
   12   237   237
   13    43    43
   14   457   457
   15   845   845
   16   815   815
   17   955   955
   18   446   446
   19   252   252
   20   422   422
   21     9     9
   22   791   791
   23   901   901
   24   359   359
   25   122   122
   26   667   667
   27    94    94
   28   598   598
   29   738   738
   30     7     7
   31   574   574
   32   544   544
   33   715   715
   34   334   334
   35   882   882
   36   766   766
   37   367   367
   38   994   994
   39   984   984
   40   893   893
   41   299   299
   42   633   633
   43   433   433
   44   131   131
   45   682   682
   46   428   428
   47    72    72
   48   700   700
   49   874   874
   50   617   617
4322
